c User generated cnf file
p cnf 12 53
2 -9 11 0 
7 -1 7 0 
6 12 -3 0 
6 10 -5 0 
2 1 -6 0 
4 1 -5 0 
6 5 -3 0 
9 -1 5 0 
7 -11 12 0 
7 -3 11 0 
1 -12 6 0 
10 6 -12 0 
4 -7 4 0 
2 11 -10 0 
11 -1 12 0 
11 -5 4 0 
2 -11 7 0 
4 12 -3 0 
5 -7 7 0 
9 12 -7 0 
1 12 -4 0 
3 -9 6 0 
5 -12 5 0 
1 -10 4 0 
10 -7 12 0 
3 -2 4 0 
5 4 -11 0 
9 -8 5 0 
10 7 -7 0 
8 -5 8 0 
10 -1 6 0 
4 9 -6 0 
12 4 -3 0 
4 9 -11 0 
11 2 -4 0 
9 12 -9 0 
6 -2 5 0 
8 -2 7 0 
5 3 -3 0 
5 -9 2 0 
3 -1 2 0 
5 11 -7 0 
10 3 -8 0 
9 -3 10 0 
8 8 -8 0 
2 -8 8 0 
3 10 -11 0 
3 1 -10 0 
12 12 -7 0 
1 -2 2 0 
2 5 -9 0 
8 10 -6 0 
12 1 -12 0 
